784 1512
1 2 4
1 29 1
2 3 1
2 30 4
3 4 2
3 31 4
4 5 1
4 32 1
5 6 1
5 33 4
6 7 5
6 34 2
7 8 3
7 35 5
8 9 4
8 36 3
9 10 5
9 37 3
10 11 2
10 38 3
11 12 1
11 39 2
12 13 1
12 40 4
13 14 2
13 41 4
14 15 5
14 42 5
15 16 1
15 43 1
16 17 4
16 44 3
17 18 4
17 45 2
18 19 5
18 46 3
19 20 5
19 47 3
20 21 1
20 48 2
21 22 1
21 49 3
22 23 5
22 50 2
23 24 2
23 51 4
24 25 4
24 52 1
25 26 1
25 53 4
26 27 1
26 54 4
27 28 2
27 55 5
28 56 1
29 30 5
29 57 2
30 31 3
30 58 4
31 32 1
31 59 2
32 33 1
32 60 5
33 34 4
33 61 5
34 35 3
34 62 5
35 36 2
35 63 4
36 37 1
36 64 5
37 38 2
37 65 3
38 39 4
38 66 1
39 40 5
39 67 1
40 41 1
40 68 3
41 42 2
41 69 5
42 43 1
42 70 5
43 44 5
43 71 4
44 45 1
44 72 4
45 46 4
45 73 3
46 47 3
46 74 1
47 48 5
47 75 3
48 49 2
48 76 2
49 50 3
49 77 3
50 51 2
50 78 3
51 52 3
51 79 1
52 53 3
52 80 5
53 54 1
53 81 2
54 55 2
54 82 4
55 56 3
55 83 3
56 84 1
57 58 5
57 85 4
58 59 2
58 86 3
59 60 4
59 87 4
60 61 4
60 88 3
61 62 3
61 89 5
62 63 2
62 90 3
63 64 5
63 91 1
64 65 4
64 92 4
65 66 1
65 93 1
66 67 5
66 94 5
67 68 5
67 95 3
68 69 4
68 96 5
69 70 3
69 97 3
70 71 3
70 98 3
71 72 4
71 99 4
72 73 3
72 100 3
73 74 5
73 101 1
74 75 1
74 102 1
75 76 3
75 103 2
76 77 2
76 104 3
77 78 3
77 105 2
78 79 1
78 106 5
79 80 5
79 107 3
80 81 4
80 108 4
81 82 2
81 109 2
82 83 3
82 110 3
83 84 1
83 111 2
84 112 4
85 86 1
85 113 1
86 87 2
86 114 2
87 88 1
87 115 2
88 89 4
88 116 5
89 90 2
89 117 5
90 91 2
90 118 3
91 92 2
91 119 4
92 93 3
92 120 3
93 94 4
93 121 3
94 95 3
94 122 4
95 96 5
95 123 3
96 97 4
96 124 4
97 98 3
97 125 2
98 99 5
98 126 3
99 100 2
99 127 5
100 101 2
100 128 2
101 102 1
101 129 5
102 103 1
102 130 2
103 104 4
103 131 2
104 105 3
104 132 5
105 106 3
105 133 5
106 107 2
106 134 1
107 108 5
107 135 2
108 109 5
108 136 4
109 110 1
109 137 3
110 111 5
110 138 5
111 112 1
111 139 5
112 140 5
113 114 5
113 141 4
114 115 3
114 142 3
115 116 5
115 143 2
116 117 4
116 144 3
117 118 2
117 145 1
118 119 3
118 146 1
119 120 1
119 147 2
120 121 1
120 148 3
121 122 1
121 149 2
122 123 4
122 150 5
123 124 3
123 151 5
124 125 4
124 152 1
125 126 4
125 153 1
126 127 2
126 154 1
127 128 4
127 155 5
128 129 2
128 156 3
129 130 1
129 157 1
130 131 3
130 158 3
131 132 4
131 159 5
132 133 1
132 160 2
133 134 4
133 161 3
134 135 3
134 162 5
135 136 3
135 163 4
136 137 1
136 164 4
137 138 3
137 165 3
138 139 1
138 166 4
139 140 4
139 167 1
140 168 1
141 142 3
141 169 3
142 143 2
142 170 3
143 144 2
143 171 5
144 145 1
144 172 1
145 146 3
145 173 5
146 147 4
146 174 4
147 148 2
147 175 5
148 149 5
148 176 5
149 150 4
149 177 1
150 151 2
150 178 1
151 152 2
151 179 5
152 153 5
152 180 3
153 154 2
153 181 2
154 155 4
154 182 2
155 156 4
155 183 4
156 157 2
156 184 4
157 158 3
157 185 4
158 159 3
158 186 1
159 160 1
159 187 2
160 161 3
160 188 1
161 162 4
161 189 4
162 163 5
162 190 1
163 164 2
163 191 5
164 165 5
164 192 4
165 166 3
165 193 1
166 167 4
166 194 3
167 168 5
167 195 5
168 196 5
169 170 3
169 197 2
170 171 4
170 198 5
171 172 4
171 199 3
172 173 2
172 200 1
173 174 5
173 201 3
174 175 5
174 202 3
175 176 5
175 203 5
176 177 3
176 204 3
177 178 3
177 205 4
178 179 4
178 206 1
179 180 5
179 207 3
180 181 2
180 208 1
181 182 1
181 209 2
182 183 1
182 210 1
183 184 3
183 211 3
184 185 4
184 212 1
185 186 1
185 213 3
186 187 4
186 214 3
187 188 1
187 215 5
188 189 4
188 216 5
189 190 2
189 217 4
190 191 1
190 218 4
191 192 1
191 219 3
192 193 3
192 220 5
193 194 1
193 221 4
194 195 1
194 222 2
195 196 5
195 223 5
196 224 2
197 198 4
197 225 2
198 199 4
198 226 2
199 200 1
199 227 3
200 201 1
200 228 4
201 202 2
201 229 4
202 203 5
202 230 2
203 204 4
203 231 1
204 205 4
204 232 4
205 206 1
205 233 4
206 207 3
206 234 2
207 208 5
207 235 5
208 209 4
208 236 1
209 210 4
209 237 2
210 211 5
210 238 3
211 212 5
211 239 3
212 213 4
212 240 2
213 214 4
213 241 5
214 215 5
214 242 3
215 216 3
215 243 4
216 217 2
216 244 1
217 218 2
217 245 2
218 219 5
218 246 5
219 220 1
219 247 1
220 221 1
220 248 3
221 222 2
221 249 3
222 223 4
222 250 3
223 224 2
223 251 5
224 252 2
225 226 1
225 253 5
226 227 1
226 254 3
227 228 5
227 255 2
228 229 4
228 256 2
229 230 2
229 257 5
230 231 1
230 258 3
231 232 5
231 259 3
232 233 1
232 260 2
233 234 1
233 261 1
234 235 4
234 262 3
235 236 3
235 263 5
236 237 4
236 264 1
237 238 1
237 265 4
238 239 1
238 266 5
239 240 1
239 267 4
240 241 5
240 268 2
241 242 3
241 269 1
242 243 3
242 270 1
243 244 5
243 271 1
244 245 3
244 272 3
245 246 1
245 273 4
246 247 2
246 274 5
247 248 5
247 275 2
248 249 2
248 276 2
249 250 4
249 277 5
250 251 3
250 278 5
251 252 2
251 279 3
252 280 3
253 254 1
253 281 4
254 255 1
254 282 4
255 256 4
255 283 3
256 257 2
256 284 3
257 258 3
257 285 3
258 259 3
258 286 1
259 260 4
259 287 3
260 261 5
260 288 2
261 262 5
261 289 4
262 263 1
262 290 3
263 264 2
263 291 1
264 265 3
264 292 3
265 266 5
265 293 2
266 267 1
266 294 2
267 268 2
267 295 5
268 269 5
268 296 5
269 270 3
269 297 1
270 271 5
270 298 2
271 272 1
271 299 5
272 273 3
272 300 2
273 274 2
273 301 1
274 275 2
274 302 4
275 276 1
275 303 4
276 277 5
276 304 3
277 278 3
277 305 5
278 279 1
278 306 5
279 280 5
279 307 2
280 308 3
281 282 4
281 309 1
282 283 5
282 310 1
283 284 1
283 311 2
284 285 1
284 312 1
285 286 4
285 313 5
286 287 5
286 314 4
287 288 1
287 315 1
288 289 3
288 316 2
289 290 1
289 317 5
290 291 2
290 318 2
291 292 2
291 319 3
292 293 2
292 320 5
293 294 1
293 321 1
294 295 2
294 322 2
295 296 2
295 323 3
296 297 2
296 324 5
297 298 4
297 325 4
298 299 5
298 326 1
299 300 2
299 327 1
300 301 5
300 328 3
301 302 5
301 329 1
302 303 4
302 330 2
303 304 1
303 331 4
304 305 3
304 332 1
305 306 5
305 333 2
306 307 5
306 334 5
307 308 2
307 335 3
308 336 1
309 310 4
309 337 3
310 311 1
310 338 1
311 312 5
311 339 4
312 313 3
312 340 2
313 314 1
313 341 3
314 315 4
314 342 3
315 316 5
315 343 3
316 317 2
316 344 1
317 318 4
317 345 3
318 319 4
318 346 2
319 320 1
319 347 3
320 321 3
320 348 1
321 322 3
321 349 5
322 323 4
322 350 5
323 324 3
323 351 5
324 325 4
324 352 4
325 326 3
325 353 4
326 327 3
326 354 2
327 328 4
327 355 2
328 329 2
328 356 4
329 330 1
329 357 3
330 331 1
330 358 5
331 332 5
331 359 3
332 333 1
332 360 2
333 334 4
333 361 3
334 335 2
334 362 5
335 336 1
335 363 3
336 364 3
337 338 2
337 365 2
338 339 4
338 366 2
339 340 4
339 367 4
340 341 2
340 368 4
341 342 5
341 369 4
342 343 1
342 370 4
343 344 4
343 371 2
344 345 3
344 372 5
345 346 4
345 373 1
346 347 2
346 374 5
347 348 2
347 375 5
348 349 4
348 376 5
349 350 1
349 377 3
350 351 1
350 378 3
351 352 2
351 379 5
352 353 1
352 380 3
353 354 3
353 381 5
354 355 1
354 382 3
355 356 3
355 383 1
356 357 1
356 384 5
357 358 4
357 385 2
358 359 4
358 386 1
359 360 3
359 387 3
360 361 2
360 388 5
361 362 4
361 389 1
362 363 3
362 390 5
363 364 4
363 391 5
364 392 2
365 366 5
365 393 5
366 367 3
366 394 4
367 368 3
367 395 5
368 369 3
368 396 4
369 370 3
369 397 3
370 371 1
370 398 4
371 372 5
371 399 2
372 373 1
372 400 1
373 374 2
373 401 1
374 375 2
374 402 2
375 376 2
375 403 2
376 377 1
376 404 3
377 378 5
377 405 1
378 379 4
378 406 4
379 380 4
379 407 2
380 381 3
380 408 2
381 382 3
381 409 4
382 383 3
382 410 1
383 384 4
383 411 5
384 385 1
384 412 4
385 386 4
385 413 3
386 387 2
386 414 2
387 388 2
387 415 3
388 389 2
388 416 4
389 390 4
389 417 3
390 391 5
390 418 3
391 392 3
391 419 3
392 420 1
393 394 2
393 421 1
394 395 4
394 422 5
395 396 1
395 423 5
396 397 1
396 424 5
397 398 2
397 425 3
398 399 4
398 426 5
399 400 3
399 427 5
400 401 4
400 428 5
401 402 2
401 429 1
402 403 1
402 430 4
403 404 1
403 431 5
404 405 4
404 432 5
405 406 1
405 433 3
406 407 5
406 434 2
407 408 2
407 435 3
408 409 2
408 436 1
409 410 5
409 437 3
410 411 2
410 438 4
411 412 4
411 439 4
412 413 3
412 440 3
413 414 2
413 441 4
414 415 1
414 442 4
415 416 2
415 443 3
416 417 3
416 444 4
417 418 3
417 445 2
418 419 4
418 446 4
419 420 5
419 447 1
420 448 1
421 422 3
421 449 4
422 423 2
422 450 2
423 424 5
423 451 3
424 425 5
424 452 1
425 426 4
425 453 5
426 427 4
426 454 4
427 428 1
427 455 1
428 429 3
428 456 1
429 430 4
429 457 1
430 431 4
430 458 1
431 432 4
431 459 3
432 433 5
432 460 3
433 434 4
433 461 2
434 435 2
434 462 2
435 436 4
435 463 4
436 437 5
436 464 3
437 438 1
437 465 4
438 439 2
438 466 1
439 440 4
439 467 5
440 441 5
440 468 5
441 442 5
441 469 3
442 443 2
442 470 2
443 444 1
443 471 2
444 445 4
444 472 5
445 446 3
445 473 3
446 447 2
446 474 3
447 448 2
447 475 4
448 476 2
449 450 3
449 477 3
450 451 2
450 478 3
451 452 3
451 479 4
452 453 4
452 480 5
453 454 5
453 481 3
454 455 1
454 482 4
455 456 3
455 483 1
456 457 4
456 484 3
457 458 1
457 485 4
458 459 3
458 486 1
459 460 5
459 487 2
460 461 3
460 488 4
461 462 1
461 489 2
462 463 4
462 490 5
463 464 4
463 491 4
464 465 3
464 492 2
465 466 4
465 493 4
466 467 5
466 494 3
467 468 3
467 495 2
468 469 5
468 496 4
469 470 2
469 497 4
470 471 3
470 498 4
471 472 1
471 499 1
472 473 3
472 500 3
473 474 1
473 501 1
474 475 4
474 502 2
475 476 1
475 503 3
476 504 1
477 478 5
477 505 5
478 479 1
478 506 2
479 480 5
479 507 1
480 481 1
480 508 1
481 482 1
481 509 4
482 483 3
482 510 5
483 484 4
483 511 3
484 485 4
484 512 5
485 486 4
485 513 2
486 487 3
486 514 2
487 488 1
487 515 4
488 489 3
488 516 3
489 490 3
489 517 4
490 491 4
490 518 3
491 492 4
491 519 3
492 493 1
492 520 5
493 494 1
493 521 2
494 495 2
494 522 1
495 496 4
495 523 4
496 497 1
496 524 1
497 498 4
497 525 5
498 499 5
498 526 1
499 500 3
499 527 5
500 501 4
500 528 2
501 502 1
501 529 1
502 503 3
502 530 5
503 504 4
503 531 3
504 532 3
505 506 3
505 533 4
506 507 1
506 534 2
507 508 3
507 535 2
508 509 5
508 536 5
509 510 2
509 537 3
510 511 2
510 538 1
511 512 2
511 539 1
512 513 4
512 540 5
513 514 1
513 541 2
514 515 3
514 542 2
515 516 4
515 543 4
516 517 2
516 544 5
517 518 3
517 545 5
518 519 4
518 546 1
519 520 1
519 547 1
520 521 3
520 548 3
521 522 4
521 549 4
522 523 5
522 550 1
523 524 5
523 551 5
524 525 5
524 552 5
525 526 2
525 553 3
526 527 3
526 554 3
527 528 1
527 555 2
528 529 1
528 556 4
529 530 5
529 557 5
530 531 3
530 558 5
531 532 5
531 559 3
532 560 5
533 534 3
533 561 1
534 535 2
534 562 2
535 536 5
535 563 2
536 537 1
536 564 4
537 538 2
537 565 4
538 539 1
538 566 3
539 540 4
539 567 1
540 541 3
540 568 4
541 542 1
541 569 3
542 543 4
542 570 5
543 544 4
543 571 2
544 545 4
544 572 2
545 546 5
545 573 2
546 547 5
546 574 5
547 548 1
547 575 1
548 549 4
548 576 4
549 550 3
549 577 5
550 551 4
550 578 3
551 552 5
551 579 1
552 553 2
552 580 4
553 554 2
553 581 5
554 555 3
554 582 3
555 556 1
555 583 5
556 557 4
556 584 4
557 558 3
557 585 1
558 559 5
558 586 2
559 560 1
559 587 4
560 588 3
561 562 1
561 589 2
562 563 1
562 590 3
563 564 3
563 591 3
564 565 1
564 592 1
565 566 2
565 593 5
566 567 5
566 594 4
567 568 1
567 595 4
568 569 3
568 596 5
569 570 4
569 597 1
570 571 5
570 598 2
571 572 2
571 599 4
572 573 2
572 600 4
573 574 2
573 601 3
574 575 5
574 602 3
575 576 5
575 603 3
576 577 5
576 604 2
577 578 2
577 605 1
578 579 4
578 606 1
579 580 2
579 607 3
580 581 5
580 608 4
581 582 1
581 609 5
582 583 3
582 610 4
583 584 2
583 611 4
584 585 1
584 612 3
585 586 4
585 613 3
586 587 2
586 614 5
587 588 4
587 615 2
588 616 4
589 590 2
589 617 5
590 591 3
590 618 4
591 592 5
591 619 1
592 593 1
592 620 5
593 594 1
593 621 4
594 595 3
594 622 3
595 596 4
595 623 1
596 597 3
596 624 1
597 598 4
597 625 1
598 599 4
598 626 4
599 600 1
599 627 2
600 601 1
600 628 2
601 602 3
601 629 5
602 603 2
602 630 4
603 604 2
603 631 3
604 605 3
604 632 1
605 606 2
605 633 3
606 607 4
606 634 2
607 608 3
607 635 4
608 609 1
608 636 1
609 610 3
609 637 2
610 611 5
610 638 2
611 612 3
611 639 3
612 613 4
612 640 4
613 614 5
613 641 3
614 615 5
614 642 4
615 616 3
615 643 1
616 644 1
617 618 4
617 645 3
618 619 1
618 646 1
619 620 1
619 647 1
620 621 2
620 648 2
621 622 2
621 649 1
622 623 4
622 650 2
623 624 3
623 651 2
624 625 2
624 652 4
625 626 1
625 653 3
626 627 1
626 654 2
627 628 2
627 655 4
628 629 4
628 656 4
629 630 5
629 657 1
630 631 2
630 658 5
631 632 4
631 659 5
632 633 4
632 660 4
633 634 3
633 661 3
634 635 2
634 662 4
635 636 1
635 663 4
636 637 3
636 664 1
637 638 2
637 665 4
638 639 3
638 666 2
639 640 1
639 667 1
640 641 1
640 668 5
641 642 4
641 669 5
642 643 3
642 670 1
643 644 1
643 671 3
644 672 4
645 646 2
645 673 5
646 647 2
646 674 5
647 648 4
647 675 1
648 649 4
648 676 2
649 650 4
649 677 1
650 651 4
650 678 3
651 652 1
651 679 5
652 653 1
652 680 3
653 654 4
653 681 5
654 655 3
654 682 5
655 656 4
655 683 4
656 657 1
656 684 4
657 658 1
657 685 2
658 659 5
658 686 5
659 660 5
659 687 1
660 661 2
660 688 3
661 662 4
661 689 5
662 663 2
662 690 5
663 664 1
663 691 5
664 665 2
664 692 3
665 666 2
665 693 5
666 667 2
666 694 5
667 668 1
667 695 5
668 669 5
668 696 3
669 670 3
669 697 4
670 671 1
670 698 5
671 672 5
671 699 3
672 700 1
673 674 4
673 701 3
674 675 5
674 702 1
675 676 3
675 703 3
676 677 4
676 704 4
677 678 5
677 705 5
678 679 2
678 706 4
679 680 2
679 707 5
680 681 2
680 708 1
681 682 5
681 709 3
682 683 4
682 710 1
683 684 3
683 711 2
684 685 3
684 712 4
685 686 2
685 713 4
686 687 4
686 714 4
687 688 2
687 715 4
688 689 4
688 716 2
689 690 4
689 717 4
690 691 2
690 718 4
691 692 3
691 719 2
692 693 3
692 720 3
693 694 4
693 721 5
694 695 1
694 722 3
695 696 1
695 723 1
696 697 4
696 724 4
697 698 1
697 725 5
698 699 3
698 726 1
699 700 5
699 727 3
700 728 5
701 702 4
701 729 2
702 703 3
702 730 4
703 704 5
703 731 5
704 705 1
704 732 1
705 706 1
705 733 1
706 707 1
706 734 1
707 708 1
707 735 2
708 709 1
708 736 1
709 710 3
709 737 2
710 711 1
710 738 4
711 712 1
711 739 1
712 713 1
712 740 5
713 714 4
713 741 2
714 715 5
714 742 2
715 716 2
715 743 5
716 717 4
716 744 1
717 718 4
717 745 4
718 719 2
718 746 3
719 720 2
719 747 2
720 721 1
720 748 5
721 722 4
721 749 1
722 723 5
722 750 4
723 724 5
723 751 4
724 725 3
724 752 5
725 726 3
725 753 4
726 727 3
726 754 1
727 728 1
727 755 5
728 756 3
729 730 4
729 757 3
730 731 4
730 758 5
731 732 3
731 759 4
732 733 1
732 760 4
733 734 5
733 761 1
734 735 3
734 762 4
735 736 4
735 763 5
736 737 3
736 764 2
737 738 1
737 765 1
738 739 3
738 766 2
739 740 4
739 767 4
740 741 5
740 768 3
741 742 5
741 769 4
742 743 3
742 770 1
743 744 2
743 771 1
744 745 4
744 772 4
745 746 4
745 773 2
746 747 1
746 774 1
747 748 5
747 775 5
748 749 1
748 776 3
749 750 4
749 777 4
750 751 3
750 778 1
751 752 4
751 779 1
752 753 5
752 780 1
753 754 4
753 781 5
754 755 1
754 782 2
755 756 1
755 783 1
756 784 3
757 758 3
758 759 5
759 760 3
760 761 1
761 762 4
762 763 1
763 764 2
764 765 2
765 766 3
766 767 4
767 768 5
768 769 3
769 770 1
770 771 1
771 772 2
772 773 2
773 774 5
774 775 1
775 776 2
776 777 5
777 778 1
778 779 3
779 780 5
780 781 1
781 782 1
782 783 3
783 784 4
